NAME 
ROWS
 N  OBJ
 L  R0      
 L  R1      
 E  R2      
 E  R3      
 E  R4      
 E  R5      
 E  R6      
 E  R7      
 E  R8      
 E  R9      
 E  R10     
 E  R11     
 E  R12     
 E  R13     
 E  R14     
 E  R15     
 E  R16     
 E  R17     
 E  R18     
 E  R19     
 E  R20     
 E  R21     
 E  R22     
 E  R23     
 E  R24     
 E  R25     
 E  R26     
COLUMNS
    MARKER    'MARKER'                 'INTORG'
    I0(13)    OBJ       -98
    I0(13)    R0        98
    I0(13)    R1        -172
    I0(13)    R2        10
    I0(13)    R3        12
    I0(13)    R4        5
    I0(13)    R5        15
    I0(13)    R6        18
    I0(13)    R8        18
    I0(13)    R9        8
    I0(13)    R10       15
    I0(13)    R11       3
    I0(13)    R13       16
    I0(13)    R26       1
    I1(12)    OBJ       -23
    I1(12)    R0        -1
    I1(12)    R1        5
    I1(12)    R4        8
    I1(12)    R5        14
    I1(12)    R6        4
    I1(12)    R7        15
    I1(12)    R8        9
    I1(12)    R10       -1
    I1(12)    R11       -1
    I1(12)    R12       5
    I1(12)    R13       5
    I1(12)    R26       1
    I2(13)    OBJ       8
    I2(13)    R0        119
    I2(13)    R1        104
    I2(13)    R2        9
    I2(13)    R3        3
    I2(13)    R4        2
    I2(13)    R5        10
    I2(13)    R7        18
    I2(13)    R8        4
    I2(13)    R9        13
    I2(13)    R11       9
    I2(13)    R12       11
    I2(13)    R13       8
    I2(13)    R26       1
    I3(12)    OBJ       146
    I3(12)    R0        43
    I3(12)    R1        -20
    I3(12)    R3        16
    I3(12)    R4        14
    I3(12)    R6        5
    I3(12)    R7        8
    I3(12)    R8        8
    I3(12)    R10       2
    I3(12)    R11       16
    I3(12)    R12       17
    I3(12)    R13       17
    I3(12)    R26       1
    I4(11)    OBJ       159
    I4(11)    R0        -125
    I4(11)    R1        -21
    I4(11)    R2        18
    I4(11)    R3        1
    I4(11)    R4        6
    I4(11)    R5        11
    I4(11)    R6        8
    I4(11)    R7        7
    I4(11)    R9        14
    I4(11)    R11       8
    I4(11)    R26       1
    I5(14)    OBJ       -109
    I5(14)    R0        -172
    I5(14)    R1        167
    I5(14)    R2        6
    I5(14)    R4        1
    I5(14)    R5        4
    I5(14)    R6        3
    I5(14)    R7        15
    I5(14)    R8        10
    I5(14)    R9        4
    I5(14)    R10       16
    I5(14)    R11       6
    I5(14)    R12       16
    I5(14)    R13       10
    I5(14)    R26       1
    I6(11)    OBJ       -82
    I6(11)    R0        -80
    I6(11)    R1        -11
    I6(11)    R3        6
    I6(11)    R4        4
    I6(11)    R5        19
    I6(11)    R8        11
    I6(11)    R9        5
    I6(11)    R10       6
    I6(11)    R11       13
    I6(11)    R12       19
    I6(11)    R26       1
    I7(14)    OBJ       -198
    I7(14)    R0        -32
    I7(14)    R1        -149
    I7(14)    R2        3
    I7(14)    R3        4
    I7(14)    R4        14
    I7(14)    R5        19
    I7(14)    R6        4
    I7(14)    R8        16
    I7(14)    R9        7
    I7(14)    R10       12
    I7(14)    R11       14
    I7(14)    R12       -1
    I7(14)    R13       1
    I7(14)    R26       1
    I8(10)    OBJ       70
    I8(10)    R0        83
    I8(10)    R1        134
    I8(10)    R5        11
    I8(10)    R6        11
    I8(10)    R7        7
    I8(10)    R9        -1
    I8(10)    R10       -1
    I8(10)    R11       12
    I8(10)    R12       9
    I8(10)    R26       1
    I9(12)    OBJ       177
    I9(12)    R0        35
    I9(12)    R1        31
    I9(12)    R3        12
    I9(12)    R4        1
    I9(12)    R6        10
    I9(12)    R7        5
    I9(12)    R8        8
    I9(12)    R9        13
    I9(12)    R10       6
    I9(12)    R11       1
    I9(12)    R12       1
    I9(12)    R26       1
    I10(13)   OBJ       -107
    I10(13)   R0        -170
    I10(13)   R1        -82
    I10(13)   R2        18
    I10(13)   R4        1
    I10(13)   R5        5
    I10(13)   R6        18
    I10(13)   R7        6
    I10(13)   R8        9
    I10(13)   R9        3
    I10(13)   R10       11
    I10(13)   R11       19
    I10(13)   R13       7
    I10(13)   R26       1
    I11(11)   OBJ       -75
    I11(11)   R0        -131
    I11(11)   R1        137
    I11(11)   R2        2
    I11(11)   R3        4
    I11(11)   R4        11
    I11(11)   R5        7
    I11(11)   R6        6
    I11(11)   R9        16
    I11(11)   R11       6
    I11(11)   R12       5
    I11(11)   R26       1
    MARKER    'MARKER'                 'INTEND'
    C12(20)   OBJ       -10
    C12(20)   R0        -5
    C12(20)   R1        7
    C12(20)   R2        18
    C12(20)   R3        9
    C12(20)   R4        12
    C12(20)   R6        16
    C12(20)   R9        4
    C12(20)   R12       19
    C12(20)   R13       -1
    C12(20)   R15       13
    C12(20)   R16       2
    C12(20)   R17       7
    C12(20)   R18       13
    C12(20)   R19       1
    C12(20)   R20       9
    C12(20)   R21       11
    C12(20)   R22       13
    C12(20)   R23       12
    C12(20)   R24       5
    C12(20)   R25       15
    C13(22)   OBJ       -7
    C13(22)   R0        -2
    C13(22)   R1        6
    C13(22)   R2        13
    C13(22)   R3        1
    C13(22)   R4        3
    C13(22)   R7        5
    C13(22)   R8        17
    C13(22)   R9        2
    C13(22)   R12       7
    C13(22)   R13       11
    C13(22)   R14       12
    C13(22)   R15       6
    C13(22)   R16       12
    C13(22)   R17       15
    C13(22)   R18       18
    C13(22)   R19       2
    C13(22)   R20       15
    C13(22)   R21       12
    C13(22)   R22       11
    C13(22)   R23       3
    C13(22)   R24       2
    C13(22)   R25       19
    C14(19)   OBJ       7
    C14(19)   R0        2
    C14(19)   R1        -2
    C14(19)   R3        3
    C14(19)   R4        9
    C14(19)   R6        13
    C14(19)   R8        12
    C14(19)   R9        18
    C14(19)   R12       16
    C14(19)   R13       17
    C14(19)   R15       3
    C14(19)   R16       10
    C14(19)   R17       5
    C14(19)   R18       3
    C14(19)   R19       15
    C14(19)   R20       14
    C14(19)   R21       10
    C14(19)   R22       10
    C14(19)   R23       16
    C14(19)   R24       15
    C15(25)   OBJ       -10
    C15(25)   R0        -6
    C15(25)   R1        3
    C15(25)   R2        13
    C15(25)   R3        11
    C15(25)   R4        17
    C15(25)   R5        6
    C15(25)   R6        16
    C15(25)   R7        12
    C15(25)   R8        9
    C15(25)   R9        17
    C15(25)   R10       17
    C15(25)   R11       12
    C15(25)   R12       13
    C15(25)   R13       2
    C15(25)   R14       15
    C15(25)   R15       10
    C15(25)   R16       18
    C15(25)   R17       17
    C15(25)   R18       15
    C15(25)   R19       16
    C15(25)   R20       9
    C15(25)   R21       19
    C15(25)   R23       19
    C15(25)   R24       6
    C15(25)   R25       17
    C16(22)   OBJ       9
    C16(22)   R0        6
    C16(22)   R1        9
    C16(22)   R2        11
    C16(22)   R3        18
    C16(22)   R4        15
    C16(22)   R5        2
    C16(22)   R6        11
    C16(22)   R8        6
    C16(22)   R9        6
    C16(22)   R10       -1
    C16(22)   R11       3
    C16(22)   R13       17
    C16(22)   R14       15
    C16(22)   R15       5
    C16(22)   R16       19
    C16(22)   R17       8
    C16(22)   R18       3
    C16(22)   R19       6
    C16(22)   R22       12
    C16(22)   R23       6
    C16(22)   R24       3
    C16(22)   R25       16
    C17(21)   OBJ       -9
    C17(21)   R0        -1
    C17(21)   R1        4
    C17(21)   R2        16
    C17(21)   R3        15
    C17(21)   R4        9
    C17(21)   R5        11
    C17(21)   R6        6
    C17(21)   R7        5
    C17(21)   R8        18
    C17(21)   R9        9
    C17(21)   R10       5
    C17(21)   R11       17
    C17(21)   R12       2
    C17(21)   R14       17
    C17(21)   R15       12
    C17(21)   R16       7
    C17(21)   R20       -1
    C17(21)   R21       12
    C17(21)   R22       -1
    C17(21)   R24       14
    C17(21)   R25       14
    C18(21)   OBJ       -8
    C18(21)   R0        7
    C18(21)   R1        -9
    C18(21)   R4        7
    C18(21)   R5        11
    C18(21)   R7        -1
    C18(21)   R8        5
    C18(21)   R9        6
    C18(21)   R11       19
    C18(21)   R12       15
    C18(21)   R13       17
    C18(21)   R14       17
    C18(21)   R15       14
    C18(21)   R16       10
    C18(21)   R17       9
    C18(21)   R18       3
    C18(21)   R19       3
    C18(21)   R20       17
    C18(21)   R21       8
    C18(21)   R22       12
    C18(21)   R24       3
    C18(21)   R25       1
    C19(21)   OBJ       8
    C19(21)   R0        9
    C19(21)   R1        -5
    C19(21)   R2        16
    C19(21)   R3        2
    C19(21)   R4        14
    C19(21)   R5        15
    C19(21)   R6        6
    C19(21)   R7        6
    C19(21)   R8        16
    C19(21)   R9        13
    C19(21)   R13       7
    C19(21)   R14       2
    C19(21)   R16       12
    C19(21)   R17       19
    C19(21)   R18       12
    C19(21)   R19       -1
    C19(21)   R20       5
    C19(21)   R21       1
    C19(21)   R22       6
    C19(21)   R23       4
    C19(21)   R24       13
    C20(21)   OBJ       3
    C20(21)   R0        -9
    C20(21)   R1        1
    C20(21)   R4        16
    C20(21)   R5        8
    C20(21)   R6        16
    C20(21)   R7        15
    C20(21)   R9        16
    C20(21)   R10       18
    C20(21)   R11       6
    C20(21)   R12       11
    C20(21)   R13       8
    C20(21)   R14       4
    C20(21)   R16       15
    C20(21)   R17       15
    C20(21)   R18       9
    C20(21)   R19       4
    C20(21)   R20       6
    C20(21)   R21       14
    C20(21)   R22       6
    C20(21)   R24       5
    C20(21)   R25       18
    C21(24)   OBJ       8
    C21(24)   R0        -4
    C21(24)   R1        -6
    C21(24)   R2        14
    C21(24)   R3        5
    C21(24)   R4        15
    C21(24)   R5        15
    C21(24)   R6        1
    C21(24)   R7        17
    C21(24)   R9        5
    C21(24)   R10       11
    C21(24)   R11       2
    C21(24)   R12       5
    C21(24)   R13       13
    C21(24)   R14       15
    C21(24)   R15       18
    C21(24)   R16       7
    C21(24)   R17       9
    C21(24)   R19       -1
    C21(24)   R20       8
    C21(24)   R21       9
    C21(24)   R22       8
    C21(24)   R23       -1
    C21(24)   R24       2
    C21(24)   R25       11
    C22(21)   OBJ       1
    C22(21)   R0        -1
    C22(21)   R1        -4
    C22(21)   R2        11
    C22(21)   R3        7
    C22(21)   R4        18
    C22(21)   R5        15
    C22(21)   R6        12
    C22(21)   R7        18
    C22(21)   R8        7
    C22(21)   R10       2
    C22(21)   R11       11
    C22(21)   R13       15
    C22(21)   R15       19
    C22(21)   R16       15
    C22(21)   R17       2
    C22(21)   R18       14
    C22(21)   R19       18
    C22(21)   R20       4
    C22(21)   R22       11
    C22(21)   R24       10
    C22(21)   R25       2
    C23(21)   OBJ       7
    C23(21)   R0        9
    C23(21)   R1        -9
    C23(21)   R2        15
    C23(21)   R3        2
    C23(21)   R5        16
    C23(21)   R6        16
    C23(21)   R7        9
    C23(21)   R9        10
    C23(21)   R10       4
    C23(21)   R11       6
    C23(21)   R12       17
    C23(21)   R14       1
    C23(21)   R16       10
    C23(21)   R17       5
    C23(21)   R18       10
    C23(21)   R19       15
    C23(21)   R20       10
    C23(21)   R21       18
    C23(21)   R22       19
    C23(21)   R24       4
    C23(21)   R25       15
    C24(21)   OBJ       -4
    C24(21)   R0        3
    C24(21)   R1        -3
    C24(21)   R2        4
    C24(21)   R3        5
    C24(21)   R4        7
    C24(21)   R5        10
    C24(21)   R6        1
    C24(21)   R7        15
    C24(21)   R8        15
    C24(21)   R9        2
    C24(21)   R10       3
    C24(21)   R12       16
    C24(21)   R13       9
    C24(21)   R15       7
    C24(21)   R16       18
    C24(21)   R17       6
    C24(21)   R18       10
    C24(21)   R19       16
    C24(21)   R23       4
    C24(21)   R24       1
    C24(21)   R25       4
    C25(1)    R2        1
    C26(1)    R3        1
    C27(1)    R4        1
    C28(1)    R5        1
    C29(1)    R6        1
    C30(1)    R7        1
    C31(1)    R8        1
    C32(1)    R9        1
    C33(1)    R10       1
    C34(1)    R11       1
    C35(1)    R12       1
    C36(1)    R13       1
    C37(1)    R14       1
    C38(1)    R15       1
    C39(1)    R16       1
    C40(1)    R17       1
    C41(1)    R18       1
    C42(1)    R19       1
    C43(1)    R20       1
    C44(1)    R21       1
    C45(1)    R22       1
    C46(1)    R23       1
    C47(1)    R24       1
    C48(1)    R25       1
    C49(1)    R26       1
RHS
    RHS1      R0        -4.1665413393005269e+02
    RHS1      R1        4.6784132148762851e+01
    RHS1      R2        50
    RHS1      R3        68
    RHS1      R4        96
    RHS1      R5        52
    RHS1      R6        94
    RHS1      R7        73
    RHS1      R8        63
    RHS1      R9        80
    RHS1      R10       65
    RHS1      R11       57
    RHS1      R12       59
    RHS1      R13       74
    RHS1      R14       73
    RHS1      R15       95
    RHS1      R16       53
    RHS1      R17       77
    RHS1      R18       71
    RHS1      R19       54
    RHS1      R20       50
    RHS1      R21       82
    RHS1      R22       88
    RHS1      R23       65
    RHS1      R24       51
    RHS1      R25       65
    RHS1      R26       4
BOUNDS
 UP BND1      I0(13)    2
 UP BND1      I1(12)    2
 UP BND1      I2(13)    2
 UP BND1      I3(12)    2
 UP BND1      I4(11)    2
 UP BND1      I5(14)    2
 UP BND1      I6(11)    2
 UP BND1      I7(14)    2
 UP BND1      I8(10)    2
 UP BND1      I9(12)    2
 UP BND1      I10(13)   2
 UP BND1      I11(11)   2
ENDATA
